30
1 0 33
2 0 29
2 1 1
3 0 6
3 1 28
3 2 3
4 0 23
4 1 26
4 2 30
4 3 27
5 0 19
5 1 22
5 2 18
5 3 23
5 4 1
6 0 26
6 1 10
6 2 32
6 3 6
6 4 32
6 5 27
7 0 17
7 1 24
7 2 18
7 3 16
7 4 16
7 5 22
7 6 31
8 0 20
8 1 26
8 2 2
8 3 10
8 4 16
8 5 29
8 6 8
8 7 15
9 0 3
9 1 17
9 2 33
9 3 30
9 4 7
9 5 13
9 6 16
9 7 4
9 8 5
10 0 30
10 1 6
10 2 13
10 3 15
10 4 11
10 5 6
10 6 23
10 7 4
10 8 17
10 9 32
11 0 18
11 1 17
11 2 11
11 3 1
11 4 27
11 5 18
11 6 32
11 7 27
11 8 28
11 9 3
11 10 14
12 0 16
12 1 13
12 2 1
12 3 9
12 4 25
12 5 18
12 6 18
12 7 3
12 8 11
12 9 22
12 10 10
12 11 2
13 0 12
13 1 14
13 2 14
13 3 9
13 4 18
13 5 15
13 6 9
13 7 4
13 8 12
13 9 9
13 10 17
13 11 5
13 12 28
14 0 6
14 1 3
14 2 29
14 3 12
14 4 8
14 5 34
14 6 32
14 7 11
14 8 18
14 9 24
14 10 14
14 11 24
14 12 29
14 13 9
15 0 24
15 1 7
15 2 11
15 3 29
15 4 5
15 5 27
15 6 34
15 7 22
15 8 23
15 9 12
15 10 8
15 11 30
15 12 9
15 13 9
15 14 18
16 0 1
16 1 4
16 2 23
16 3 27
16 4 2
16 5 22
16 6 27
16 7 24
16 8 9
16 9 11
16 10 32
16 11 6
16 12 14
16 13 23
16 14 27
16 15 16
17 0 16
17 1 11
17 2 1
17 3 9
17 4 11
17 5 13
17 6 18
17 7 17
17 8 5
17 9 31
17 10 21
17 11 17
17 12 23
17 13 22
17 14 12
17 15 32
17 16 3
18 0 29
18 1 14
18 2 34
18 3 14
18 4 25
18 5 8
18 6 33
18 7 10
18 8 29
18 9 27
18 10 19
18 11 34
18 12 25
18 13 19
18 14 12
18 15 19
18 16 22
18 17 2
19 0 26
19 1 7
19 2 13
19 3 29
19 4 13
19 5 3
19 6 27
19 7 28
19 8 34
19 9 23
19 10 28
19 11 6
19 12 1
19 13 25
19 14 19
19 15 14
19 16 27
19 17 2
19 18 31
20 0 13
20 1 17
20 2 11
20 3 13
20 4 4
20 5 28
20 6 21
20 7 4
20 8 27
20 9 29
20 10 21
20 11 27
20 12 15
20 13 9
20 14 19
20 15 5
20 16 33
20 17 11
20 18 9
20 19 24
21 0 19
21 1 33
21 2 32
21 3 11
21 4 30
21 5 11
21 6 20
21 7 30
21 8 8
21 9 29
21 10 6
21 11 14
21 12 34
21 13 13
21 14 4
21 15 11
21 16 12
21 17 1
21 18 3
21 19 10
21 20 1
22 0 29
22 1 2
22 2 17
22 3 28
22 4 16
22 5 21
22 6 5
22 7 14
22 8 5
22 9 23
22 10 17
22 11 31
22 12 5
22 13 34
22 14 20
22 15 17
22 16 8
22 17 9
22 18 3
22 19 7
22 20 20
22 21 31
23 0 30
23 1 17
23 2 18
23 3 10
23 4 20
23 5 32
23 6 9
23 7 20
23 8 22
23 9 1
23 10 21
23 11 7
23 12 2
23 13 26
23 14 10
23 15 8
23 16 9
23 17 21
23 18 33
23 19 1
23 20 25
23 21 2
23 22 23
24 0 16
24 1 32
24 2 24
24 3 9
24 4 1
24 5 34
24 6 27
24 7 5
24 8 25
24 9 17
24 10 17
24 11 17
24 12 2
24 13 27
24 14 17
24 15 20
24 16 34
24 17 19
24 18 14
24 19 1
24 20 22
24 21 13
24 22 11
24 23 30
25 0 17
25 1 31
25 2 17
25 3 6
25 4 11
25 5 18
25 6 30
25 7 10
25 8 17
25 9 28
25 10 7
25 11 29
25 12 11
25 13 4
25 14 8
25 15 17
25 16 4
25 17 29
25 18 11
25 19 25
25 20 18
25 21 3
25 22 23
25 23 5
25 24 21
26 0 15
26 1 5
26 2 16
26 3 32
26 4 33
26 5 20
26 6 24
26 7 6
26 8 32
26 9 30
26 10 15
26 11 9
26 12 22
26 13 13
26 14 9
26 15 10
26 16 22
26 17 10
26 18 18
26 19 5
26 20 18
26 21 4
26 22 14
26 23 2
26 24 6
26 25 16
27 0 14
27 1 15
27 2 12
27 3 16
27 4 4
27 5 18
27 6 26
27 7 33
27 8 30
27 9 1
27 10 3
27 11 7
27 12 21
27 13 8
27 14 29
27 15 4
27 16 28
27 17 31
27 18 19
27 19 7
27 20 16
27 21 26
27 22 30
27 23 13
27 24 34
27 25 26
27 26 4
28 0 28
28 1 17
28 2 16
28 3 7
28 4 8
28 5 22
28 6 19
28 7 5
28 8 29
28 9 27
28 10 10
28 11 34
28 12 5
28 13 29
28 14 29
28 15 22
28 16 32
28 17 27
28 18 18
28 19 23
28 20 19
28 21 22
28 22 8
28 23 13
28 24 9
28 25 14
28 26 33
28 27 4
29 0 19
29 1 33
29 2 7
29 3 12
29 4 2
29 5 9
29 6 31
29 7 9
29 8 8
29 9 13
29 10 11
29 11 25
29 12 11
29 13 20
29 14 11
29 15 28
29 16 26
29 17 20
29 18 28
29 19 11
29 20 4
29 21 25
29 22 4
29 23 3
29 24 7
29 25 25
29 26 14
29 27 3
29 28 7
